language ESSENCE' 1.0
$ minion Nodes: 2
$ minion TotalTime: 0.000516
$ Savile Row TotalTime: 0.222
letting pain_tuple1_tuple3 be [4;int(1)]
letting pain_tuple1_tuple2_AsReln_RelationIntMatrix2 be [[[false, true;int(-1,1)], 
[false, true;int(-1,1)];int(1..2)];int(1)]
letting pain_tuple1_tuple1 be [2;int(1)]
